20 10
84 52 65 63 31 71 12 63 91 54
90 39 31 75 87 32 32 46 7 27
53 62 74 33 85 71 99 51 58 83
27 35 55 31 84 47 65 77 54 67
34 91 94 15 90 7 77 78 58 53
29 3 62 85 48 90 18 94 23 67
64 91 50 72 71 24 46 30 36 89
36 77 89 26 16 11 30 9 3 50
39 65 30 40 18 54 56 90 47 82
21 50 7 58 32 37 39 44 99 71
47 68 24 97 39 98 52 31 13 58
28 42 25 31 16 3 53 35 71 47
31 47 6 98 57 5 7 10 51 38
83 58 46 56 23 41 76 24 97 14
38 11 36 84 36 95 58 56 61 46
10 62 36 26 19 44 44 17 36 67
3 33 6 79 90 9 49 49 61 28
15 74 43 7 82 5 84 17 38 8
11 80 75 69 63 96 8 96 3 91
94 59 87 29 31 77 95 90 52 81
